n_res = 4;
rc = [ 19, 18, 19, 17 ];
n_tasks = 30;
d = [ 3, 2, 1, 7, 2, 1, 9, 8, 8, 8, 4, 10, 4, 10, 7, 1, 4, 9, 1, 4, 3, 5, 4, 3, 1, 7, 6, 9, 7, 3 ];
rr = [| 19, 19, 19, 19, 19, 19, 19, 19, 19, 19, 19, 19, 19, 19, 19, 19, 19, 19, 19, 19, 19, 19, 19, 19, 19, 19, 19, 19, 19, 19
      | 18, 18, 18, 18, 18, 18, 18, 18, 18, 18, 18, 18, 18, 18, 18, 18, 18, 18, 18, 18, 18, 18, 18, 18, 18, 18, 18, 18, 18, 18
      | 19, 19, 19, 19, 19, 19, 19, 19, 19, 19, 19, 19, 19, 19, 19, 19, 19, 19, 19, 19, 19, 19, 19, 19, 19, 19, 19, 19, 19, 19
      | 17, 17, 17, 17, 17, 17, 17, 17, 17, 17, 17, 17, 17, 17, 17, 17, 17, 17, 17, 17, 17, 17, 17, 17, 17, 17, 17, 17, 17, 17|];
suc = [ { 7, 13, 14 },
       { 5, 6, 15 },
       { 4, 9, 10 },
       { 8, 18, 20 },
       { 11 },
       { 12 },
       { 19 },
       { 28 },
       { 24 },
       { 17 },
       { 23, 28 },
       { 19 },
       { 22, 23 },
       { 16, 30 },
       { 21 },
       { 22 },
       { 18, 26 },
       { 19 },
       { 21 },
       { 22, 26 },
       { 25 },
       { 24, 27 },
       { 26 },
       { 25, 28 },
       { 29 },
       { 27 },
       { 29 },
       {  },
       {  },
       {  } ];
